c b=6,c=517
p cnf 21 115
3 4 6 -12 0
2 3 6 -14 0
6 -21 0
3 4 -6 12 0
3 4 -6 14 0
-6 21 0
2 3 5 -11 0
1 4 5 -13 0
5 -20 0
2 3 -5 11 0
3 4 -5 13 0
-5 20 0
1 2 4 -10 0
3 4 -15 0
4 -19 0
2 3 -4 6 12 0
1 2 5 6 -13 0
2 3 -4 -6 -12 0
-4 5 -6 13 0
5 -6 14 0
5 -15 0
2 3 -5 6 13 0
6 -15 0
-4 -5 -6 -13 0
-4 -5 -6 15 0
2 3 -4 -5 -14 0
1 2 -4 10 0
-4 19 0
1 3 -9 0
3 -18 0
1 2 4 5 6 -12 0
4 6 -14 0
1 2 4 5 -6 12 0
1 2 -3 5 11 0
-3 4 -5 6 12 0
4 -5 6 13 0
-3 4 -5 -6 -12 0
1 -3 4 -6 -13 0
-3 -5 -6 15 0
1 2 -3 -5 -11 0
-3 4 -5 -14 0
1 2 -4 5 6 12 0
1 2 -3 -4 6 -13 0
5 6 -14 0
1 2 -4 5 -6 -12 0
-3 -4 -5 6 -12 0
-3 -4 -5 6 14 0
-3 -4 -5 -6 12 0
-3 -5 -6 -14 0
-3 -4 -5 -13 0
1 -3 9 0
-3 18 0
2 -8 0
2 -17 0
1 3 4 5 -11 0
1 3 4 -5 11 0
1 -2 4 10 0
3 -4 5 6 12 0
-2 3 -4 6 -13 0
3 -4 5 -6 -12 0
-2 3 -4 5 11 0
-2 3 -5 6 -12 0
-2 -4 -5 6 14 0
-2 3 -5 -6 12 0
-2 -4 -5 -6 -14 0
-2 3 -4 -5 -11 0
-2 -4 -5 -13 0
1 -2 -4 -10 0
1 -2 -3 5 6 -12 0
1 -2 -3 5 -6 12 0
1 -3 4 5 11 0
1 -3 4 -5 -11 0
-2 -3 -4 6 -12 0
-2 -3 -4 -6 12 0
-2 -3 -4 5 -11 0
-2 -3 -4 5 13 0
-2 -3 -4 -5 11 0
-2 8 0
-2 17 0
1 -7 0
1 -16 0
2 4 5 -13 0
2 3 4 -10 0
2 3 5 6 -13 0
2 3 -4 10 0
-1 3 9 0
-1 2 -3 5 6 -12 0
-1 2 -3 5 -6 12 0
2 -3 4 5 11 0
2 -3 4 -6 -13 0
2 -3 4 -5 -11 0
-1 2 -3 4 10 0
-1 -3 -4 6 -12 0
-1 -3 -4 -6 12 0
-1 2 -4 5 -11 0
-1 -3 -4 5 13 0
-1 2 -4 -5 11 0
-1 2 -3 -4 -10 0
-1 -3 -9 0
-1 -2 4 5 -11 0
3 4 5 -13 0
-1 -2 4 -5 11 0
-2 3 4 10 0
-2 3 -4 -10 0
-1 -2 -3 4 6 12 0
4 5 6 -13 0
-1 -2 -3 4 -6 -12 0
-1 -2 -3 5 -6 13 0
-1 -2 -3 5 -11 0
-1 -2 -3 -5 -6 -13 0
-1 -2 -3 -5 11 0
-1 -2 -3 4 -10 0
-1 -2 -3 -4 10 0
-1 7 0
-1 16 0
